p cnf 7230 14
-1420 1585 -1589 0
-143 -1428 1593 0
1590 -1593 0
143 -1591 0
-1590 1591 0
1592 -1593 0
1428 -1591 0
-1296 1589 0
1587 -1589 0
-1587 1588 0
1586 -1588 0
1296 -1586 0
1584 -1585 0
-1584 1585 0
